p cnf 328 1190
c t mc
-1 2 -3 0
1 -2 -3 0
-1 -2 3 0
1 2 3 0
-5 -3 0
-5 4 0
3 -4 5 0
7 -5 0
7 6 0
5 -6 -7 0
9 -7 0
9 -8 0
7 8 -9 0
-11 -9 0
-11 -10 0
9 10 11 0
13 11 0
13 -12 0
-11 12 -13 0
-16 15 0
-16 -8 0
-15 8 16 0
14 16 -17 0
-14 -16 -17 0
14 -16 17 0
-14 16 17 0
18 7 0
18 17 0
-7 -17 -18 0
18 -19 -20 0
-18 19 -20 0
18 19 20 0
-18 -19 20 0
21 -1 0
21 3 0
1 -3 -21 0
-22 -4 0
-22 -21 0
4 21 22 0
-23 -22 0
-23 -14 0
22 14 23 0
-10 23 -24 0
10 -23 -24 0
-10 -23 24 0
10 23 24 0
25 -1 0
25 -24 0
1 24 -25 0
26 25 0
26 21 0
-25 -21 -26 0
-29 28 0
-29 10 0
-28 -10 29 0
-31 -30 0
-31 5 0
30 -5 31 0
32 -31 0
32 18 0
31 -18 -32 0
-33 -29 0
-33 32 0
29 -32 33 0
27 33 -34 0
-27 -33 -34 0
27 -33 34 0
-27 33 34 0
36 15 0
36 35 0
-15 -35 -36 0
-37 -22 0
-37 36 0
22 -36 37 0
-38 7 -39 0
38 -7 -39 0
-38 -7 39 0
38 7 39 0
40 -39 0
40 31 0
39 -31 -40 0
5 40 -41 0
-5 -40 -41 0
5 -40 41 0
-5 40 41 0
-42 -37 0
-42 41 0
37 -41 42 0
-43 34 0
-43 -42 0
-34 42 43 0
26 43 -44 0
-26 -43 -44 0
26 -43 44 0
-26 43 44 0
14 28 -45 0
-14 -28 -45 0
14 -28 45 0
-14 28 45 0
38 -46 -47 0
-38 46 -47 0
38 46 47 0
-38 -46 47 0
48 -45 0
48 -47 0
45 47 -48 0
-49 -22 0
-49 48 0
22 -48 49 0
-44 -49 -50 0
44 49 -50 0
-44 49 50 0
44 -49 50 0
51 -20 0
51 -50 0
20 50 -51 0
-34 10 -52 0
34 -10 -52 0
-34 -10 52 0
34 10 52 0
-53 -6 0
-53 -52 0
6 52 53 0
54 17 0
54 -22 0
-17 22 -54 0
53 -54 -55 0
-53 54 -55 0
53 54 55 0
-53 -54 55 0
56 2 0
56 46 0
-2 -46 -56 0
-57 -56 0
-57 30 0
56 -30 57 0
32 -57 -58 0
-32 57 -58 0
32 57 58 0
-32 -57 58 0
-58 -47 -59 0
58 47 -59 0
-58 47 59 0
58 -47 59 0
60 59 0
60 7 0
-59 -7 -60 0
-61 -23 0
-61 2 0
23 -2 61 0
61 -4 -62 0
-61 4 -62 0
61 4 62 0
-61 -4 62 0
-60 62 -63 0
60 -62 -63 0
-60 -62 63 0
60 62 63 0
55 63 -64 0
-55 -63 -64 0
55 -63 64 0
-55 63 64 0
65 51 0
65 -64 0
-51 64 -65 0
-40 -67 -68 0
40 67 -68 0
-40 67 68 0
40 -67 68 0
69 -66 0
69 68 0
66 -68 -69 0
-70 -8 0
-70 5 0
8 -5 70 0
-71 56 0
-71 -4 0
-56 4 71 0
72 71 0
72 -68 0
-71 68 -72 0
-73 70 0
-73 72 0
-70 -72 73 0
-62 73 -74 0
62 -73 -74 0
-62 -73 74 0
62 73 74 0
-75 69 0
-75 -74 0
-69 74 75 0
76 -46 -77 0
-76 46 -77 0
76 46 77 0
-76 -46 77 0
79 -78 0
79 -38 0
78 38 -79 0
80 6 0
80 10 0
-6 -10 -80 0
-79 80 -81 0
79 -80 -81 0
-79 -80 81 0
79 80 81 0
82 58 0
82 14 0
-58 -14 -82 0
38 82 -83 0
-38 -82 -83 0
38 -82 83 0
-38 82 83 0
84 -81 0
84 -83 0
81 83 -84 0
-85 -77 0
-85 84 0
77 -84 85 0
86 8 0
86 -4 0
-8 4 -86 0
87 86 0
87 28 0
-86 -28 -87 0
88 -70 0
88 87 0
70 -87 -88 0
88 -11 -89 0
-88 11 -89 0
88 11 89 0
-88 -11 89 0
90 -89 0
90 7 0
89 -7 -90 0
91 85 0
91 -90 0
-85 90 -91 0
-92 75 0
-92 -91 0
-75 91 92 0
-93 65 0
-93 -92 0
-65 92 93 0
-94 40 0
-94 36 0
-40 -36 94 0
95 -94 0
95 -15 0
94 15 -95 0
59 23 -96 0
-59 -23 -96 0
59 -23 96 0
-59 23 96 0
-97 -95 0
-97 96 0
95 -96 97 0
-38 15 -98 0
38 -15 -98 0
-38 -15 98 0
38 15 98 0
98 8 -99 0
-98 -8 -99 0
98 -8 99 0
-98 8 99 0
100 -39 0
100 99 0
39 -99 -100 0
31 -66 -101 0
-31 66 -101 0
31 66 101 0
-31 -66 101 0
102 -101 0
102 -81 0
101 81 -102 0
100 -102 -103 0
-100 102 -103 0
100 102 103 0
-100 -102 103 0
-104 -1 0
-104 31 0
1 -31 104 0
-105 23 0
-105 -104 0
-23 104 105 0
-80 49 -106 0
80 -49 -106 0
-80 -49 106 0
80 49 106 0
-107 -2 0
-107 -106 0
2 106 107 0
108 -43 0
108 34 0
43 -34 -108 0
108 72 -109 0
-108 -72 -109 0
108 -72 109 0
-108 72 109 0
110 28 0
110 68 0
-28 -68 -110 0
-109 -110 -111 0
109 110 -111 0
-109 110 111 0
109 -110 111 0
112 107 0
112 -111 0
-107 111 -112 0
-105 112 -113 0
105 -112 -113 0
-105 -112 113 0
105 112 113 0
114 -103 0
114 113 0
103 -113 -114 0
79 -46 -115 0
-79 46 -115 0
79 46 115 0
-79 -46 115 0
18 38 -116 0
-18 -38 -116 0
18 -38 116 0
-18 38 116 0
-116 -82 -117 0
116 82 -117 0
-116 82 117 0
116 -82 117 0
118 99 0
118 117 0
-99 -117 -118 0
-118 -98 -119 0
118 98 -119 0
-118 98 119 0
118 -98 119 0
120 115 0
120 -119 0
-115 119 -120 0
114 120 -121 0
-114 -120 -121 0
114 -120 121 0
-114 120 121 0
122 -39 -123 0
-122 39 -123 0
122 39 123 0
-122 -39 123 0
-123 28 -124 0
123 -28 -124 0
-123 -28 124 0
123 28 124 0
-125 15 0
-125 -124 0
-15 124 125 0
126 -98 0
126 -18 0
98 18 -126 0
127 -126 0
127 -15 0
126 15 -127 0
125 -127 -128 0
-125 127 -128 0
125 127 128 0
-125 -127 128 0
-129 -21 0
-129 -61 0
21 61 129 0
130 -61 0
130 129 0
61 -129 -130 0
-131 130 0
-131 -123 0
-130 123 131 0
132 -128 0
132 -131 0
128 131 -132 0
-38 71 -133 0
38 -71 -133 0
-38 -71 133 0
38 71 133 0
-134 -132 0
-134 133 0
132 -133 134 0
-135 121 0
-135 134 0
-121 -134 135 0
-136 97 0
-136 -135 0
-97 135 136 0
-137 -93 0
-137 136 0
93 -136 137 0
138 13 0
138 -137 0
-13 137 -138 0
139 -99 0
139 -38 0
99 38 -139 0
-140 -70 0
-140 -116 0
70 116 140 0
-141 139 0
-141 140 0
-139 -140 141 0
39 -3 -142 0
-39 3 -142 0
39 3 142 0
-39 -3 142 0
59 -142 -143 0
-59 142 -143 0
59 142 143 0
-59 -142 143 0
1 38 -144 0
-1 -38 -144 0
1 -38 144 0
-1 38 144 0
-145 -10 0
-145 22 0
10 -22 145 0
146 72 0
146 32 0
-72 -32 -146 0
-147 145 0
-147 146 0
-145 -146 147 0
-28 -79 -148 0
28 79 -148 0
-28 79 148 0
28 -79 148 0
-147 148 -149 0
147 -148 -149 0
-147 -148 149 0
147 148 149 0
-150 -144 0
-150 149 0
144 -149 150 0
-143 150 -151 0
143 -150 -151 0
-143 -150 151 0
143 150 151 0
152 141 0
152 -151 0
-141 151 -152 0
153 -28 0
153 -89 0
28 89 -153 0
-154 153 0
-154 -98 0
-153 98 154 0
-15 -66 -155 0
15 66 -155 0
-15 66 155 0
15 -66 155 0
156 155 0
156 14 0
-155 -14 -156 0
-154 -156 -157 0
154 156 -157 0
-154 156 157 0
154 -156 157 0
158 43 0
158 56 0
-43 -56 -158 0
-7 158 -159 0
7 -158 -159 0
-7 -158 159 0
7 158 159 0
-160 157 0
-160 159 0
-157 -159 160 0
161 -66 0
161 39 0
66 -39 -161 0
162 161 0
162 -82 0
-161 82 -162 0
-163 -89 0
-163 162 0
89 -162 163 0
78 98 -164 0
-78 -98 -164 0
78 -98 164 0
-78 98 164 0
-163 164 -165 0
163 -164 -165 0
-163 -164 165 0
163 164 165 0
-166 160 0
-166 -165 0
-160 165 166 0
-167 152 0
-167 166 0
-152 -166 167 0
-168 -10 0
-168 46 0
10 -46 168 0
-169 168 0
-169 61 0
-168 -61 169 0
-170 72 0
-170 -71 0
-72 71 170 0
-171 16 0
-171 -99 0
-16 99 171 0
172 170 0
172 -171 0
-170 171 -172 0
173 -172 0
173 -40 0
172 40 -173 0
-174 -169 0
-174 173 0
169 -173 174 0
-175 74 0
-175 67 0
-74 -67 175 0
176 -17 0
176 -175 0
17 175 -176 0
177 116 0
177 89 0
-116 -89 -177 0
176 -177 -178 0
-176 177 -178 0
176 177 178 0
-176 -177 178 0
-174 -178 -179 0
174 178 -179 0
-174 178 179 0
174 -178 179 0
180 78 0
180 40 0
-78 -40 -180 0
181 71 0
181 69 0
-71 -69 -181 0
-182 -4 0
-182 -48 0
4 48 182 0
183 -181 0
183 182 0
181 -182 -183 0
180 183 -184 0
-180 -183 -184 0
180 -183 184 0
-180 183 184 0
-179 184 -185 0
179 -184 -185 0
-179 -184 185 0
179 184 185 0
-66 56 -186 0
66 -56 -186 0
-66 -56 186 0
66 56 186 0
-187 3 0
-187 -88 0
-3 88 187 0
-188 -186 0
-188 187 0
186 -187 188 0
-189 -8 0
-189 -67 0
8 67 189 0
-190 -189 0
-190 -171 0
189 171 190 0
191 15 0
191 -106 0
-15 106 -191 0
192 116 0
192 -191 0
-116 191 -192 0
-193 -190 0
-193 -192 0
190 192 193 0
194 -188 0
194 193 0
188 -193 -194 0
-195 185 0
-195 194 0
-185 -194 195 0
-196 80 0
-196 58 0
-80 -58 196 0
-14 27 -197 0
14 -27 -197 0
-14 -27 197 0
14 27 197 0
-198 -196 0
-198 -197 0
196 197 198 0
199 -153 0
199 -83 0
153 83 -199 0
200 -198 0
200 199 0
198 -199 -200 0
117 57 -201 0
-117 -57 -201 0
117 -57 201 0
-117 57 201 0
200 -201 -202 0
-200 201 -202 0
200 201 202 0
-200 -201 202 0
61 -172 -203 0
-61 172 -203 0
61 172 203 0
-61 -172 203 0
204 202 0
204 203 0
-202 -203 -204 0
205 71 0
205 -32 0
-71 32 -205 0
206 36 0
206 56 0
-36 -56 -206 0
-205 206 -207 0
205 -206 -207 0
-205 -206 207 0
205 206 207 0
208 -9 0
208 -48 0
9 48 -208 0
-209 207 0
-209 208 0
-207 -208 209 0
210 -204 0
210 209 0
204 -209 -210 0
211 -45 0
211 -47 0
45 47 -211 0
212 -76 0
212 126 0
76 -126 -212 0
213 155 0
213 -41 0
-155 41 -213 0
214 106 0
214 -213 0
-106 213 -214 0
215 212 0
215 -214 0
-212 214 -215 0
-216 79 0
-216 15 0
-79 -15 216 0
216 84 -217 0
-216 -84 -217 0
216 -84 217 0
-216 84 217 0
215 217 -218 0
-215 -217 -218 0
215 -217 218 0
-215 217 218 0
-219 -10 0
-219 206 0
10 -206 219 0
220 -218 0
220 -219 0
218 219 -220 0
-221 -211 0
-221 -220 0
211 220 221 0
-222 210 0
-222 -221 0
-210 221 222 0
-223 33 0
-223 7 0
-33 -7 223 0
33 -67 -224 0
-33 67 -224 0
33 67 224 0
-33 -67 224 0
-225 224 0
-225 53 0
-224 -53 225 0
-226 223 0
-226 -225 0
-223 225 226 0
227 226 0
227 84 0
-226 -84 -227 0
228 -17 0
228 -163 0
17 163 -228 0
78 22 -229 0
-78 -22 -229 0
78 -22 229 0
-78 22 229 0
230 -228 0
230 229 0
228 -229 -230 0
-231 -11 0
-231 40 0
11 -40 231 0
230 -231 -232 0
-230 231 -232 0
230 231 232 0
-230 -231 232 0
233 227 0
233 -232 0
-227 232 -233 0
234 12 0
234 -124 0
-12 124 -234 0
-235 -225 0
-235 -234 0
225 234 235 0
-104 223 -236 0
104 -223 -236 0
-104 -223 236 0
104 223 236 0
-237 235 0
-237 -236 0
-235 236 237 0
238 -233 0
238 -237 0
233 237 -238 0
-239 142 0
-239 44 0
-142 -44 239 0
-240 -238 0
-240 239 0
238 -239 240 0
241 6 0
241 1 0
-6 -1 -241 0
-242 40 0
-242 10 0
-40 -10 242 0
1 -32 -243 0
-1 32 -243 0
1 32 243 0
-1 -32 243 0
244 243 0
244 -29 0
-243 29 -244 0
-244 56 -245 0
244 -56 -245 0
-244 -56 245 0
244 56 245 0
245 -35 -246 0
-245 35 -246 0
245 35 246 0
-245 -35 246 0
-247 -242 0
-247 -246 0
242 246 247 0
248 -241 0
248 247 0
241 -247 -248 0
-249 77 0
-249 -87 0
-77 87 249 0
-250 -45 0
-250 249 0
45 -249 250 0
251 74 0
251 7 0
-74 -7 -251 0
252 251 0
252 30 0
-251 -30 -252 0
253 252 0
253 88 0
-252 -88 -253 0
254 -253 0
254 -81 0
253 81 -254 0
-255 250 0
-255 -254 0
-250 254 255 0
256 248 0
256 255 0
-248 -255 -256 0
-257 168 0
-257 49 0
-168 -49 257 0
258 -62 0
258 -216 0
62 216 -258 0
-259 258 0
-259 34 0
-258 -34 259 0
260 -257 0
260 -259 0
257 259 -260 0
261 164 0
261 106 0
-164 -106 -261 0
262 -9 0
262 101 0
9 -101 -262 0
181 -214 -263 0
-181 214 -263 0
181 214 263 0
-181 -214 263 0
264 -262 0
264 263 0
262 -263 -264 0
-175 -66 -265 0
175 66 -265 0
-175 66 265 0
175 -66 265 0
264 -265 -266 0
-264 265 -266 0
264 265 266 0
-264 -265 266 0
-267 261 0
-267 266 0
-261 -266 267 0
-268 260 0
-268 -267 0
-260 267 268 0
256 -268 -269 0
-256 268 -269 0
256 268 269 0
-256 -268 269 0
-270 240 0
-270 -269 0
-240 269 270 0
-271 222 0
-271 -270 0
-222 270 271 0
-168 41 -272 0
168 -41 -272 0
-168 -41 272 0
168 41 272 0
-62 272 -273 0
62 -272 -273 0
-62 -272 273 0
62 272 273 0
-168 216 -274 0
168 -216 -274 0
-168 -216 274 0
168 216 274 0
-275 -273 0
-275 -274 0
273 274 275 0
-276 47 0
-276 79 0
-47 -79 276 0
-275 -276 -277 0
275 276 -277 0
-275 276 277 0
275 -276 277 0
-80 -216 -278 0
80 216 -278 0
-80 216 278 0
80 -216 278 0
156 278 -279 0
-156 -278 -279 0
156 -278 279 0
-156 278 279 0
253 -172 -280 0
-253 172 -280 0
253 172 280 0
-253 -172 280 0
-281 67 0
-281 -280 0
-67 280 281 0
-279 -281 -282 0
279 281 -282 0
-279 281 282 0
279 -281 282 0
283 -277 0
283 282 0
277 -282 -283 0
284 -80 0
284 109 0
80 -109 -284 0
285 -48 0
285 -57 0
48 57 -285 0
286 41 0
286 29 0
-41 -29 -286 0
287 285 0
287 -286 0
-285 286 -287 0
284 -287 -288 0
-284 287 -288 0
284 287 288 0
-284 -287 288 0
289 -39 0
289 -47 0
39 47 -289 0
-290 225 0
-290 -104 0
-225 104 290 0
-291 66 0
-291 -182 0
-66 182 291 0
290 291 -292 0
-290 -291 -292 0
290 -291 292 0
-290 291 292 0
-289 292 -293 0
289 -292 -293 0
-289 -292 293 0
289 292 293 0
-294 86 0
-294 -38 0
-86 38 294 0
295 -60 0
295 -294 0
60 294 -295 0
-296 -33 0
-296 34 0
33 -34 296 0
-297 296 0
-297 129 0
-296 -129 297 0
295 297 -298 0
-295 -297 -298 0
295 -297 298 0
-295 297 298 0
293 -298 -299 0
-293 298 -299 0
293 298 299 0
-293 -298 299 0
-288 299 -300 0
288 -299 -300 0
-288 -299 300 0
288 299 300 0
301 296 0
301 -285 0
-296 285 -301 0
-302 4 0
-302 197 0
-4 -197 302 0
-303 301 0
-303 -302 0
-301 302 303 0
304 -243 0
304 18 0
243 -18 -304 0
303 304 -305 0
-303 -304 -305 0
303 -304 305 0
-303 304 305 0
-8 205 -306 0
8 -205 -306 0
-8 -205 306 0
8 205 306 0
307 8 0
307 -36 0
-8 36 -307 0
-308 -306 0
-308 -307 0
306 307 308 0
309 305 0
309 -308 0
-305 308 -309 0
310 -300 0
310 309 0
300 -309 -310 0
-311 283 0
-311 310 0
-283 -310 311 0
312 -271 0
312 311 0
271 -311 -312 0
-313 195 0
-313 -312 0
-195 312 313 0
314 167 0
314 313 0
-167 -313 -314 0
-315 -138 0
-315 314 0
138 -314 315 0
316 -2 0
316 272 0
2 -272 -316 0
317 1 0
317 38 0
-1 -38 -317 0
-4 -317 -318 0
4 317 -318 0
-4 317 318 0
4 -317 318 0
-316 318 -319 0
316 -318 -319 0
-316 -318 319 0
316 318 319 0
-320 -35 0
-320 106 0
35 -106 320 0
321 39 0
321 -56 0
-39 56 -321 0
322 321 0
322 57 0
-321 -57 -322 0
171 322 -323 0
-171 -322 -323 0
171 -322 323 0
-171 322 323 0
324 -320 0
324 -323 0
320 323 -324 0
325 81 0
325 214 0
-81 -214 -325 0
326 324 0
326 325 0
-324 -325 -326 0
327 319 0
327 -326 0
-319 326 -327 0
-328 -315 0
-328 327 0
315 -327 328 0
318 59 -89 -202 -262 0
65 151 -76 279 136 41 175 0
49 112 19 216 27 0
259 -102 -138 -51 -45 84 82 81 245 0
237 -327 -2 -265 138 -34 -82 144 177 -158 0
118 -252 -38 -108 271 282 312 194 -135 -260 0
33 -142 0
66 81 289 239 0
-299 213 -224 -6 216 -245 -308 0
232 -110 0
-113 32 -50 -44 183 -129 -147 0
-228 -141 -16 208 -187 35 216 0
108 156 -188 -244 271 -168 -72 0
-156 154 -287 72 245 303 215 -223 0
-191 -210 -167 -77 288 40 248 0
151 -198 17 -167 230 158 0
-33 -93 0
286 -243 0
85 292 178 311 -161 244 -225 0
-129 -228 -204 -197 -266 -2 0
-215 -139 -30 0
-193 305 -209 -37 -165 -75 0
284 50 -120 102 313 0
-111 -98 293 -123 7 322 -132 0
7 220 165 328 -319 253 191 0
177 -17 -158 -210 -241 -3 -156 203 296 -242 0
320 208 -53 249 -277 6 108 0
-52 206 70 -111 -197 -144 310 0
-95 -252 276 -146 30 -219 -215 0
-272 -58 203 -260 -98 -7 0
-160 237 162 265 -291 -261 -39 -83 -212 0
-114 -84 156 -43 0
282 149 0
-296 311 0
118 -171 -323 -177 97 -152 -191 310 0
121 -125 -29 157 -130 143 -35 64 0
-69 -288 217 -227 -182 -212 16 -92 303 157 0
-300 -143 -160 -254 306 -324 299 127 -106 0
81 -243 -167 112 182 8 253 -57 0
-196 217 -16 66 -230 0
-156 -41 -168 -27 -16 -259 324 -88 107 52 0
-257 20 -274 290 49 209 -288 153 0
42 18 262 0
170 108 104 158 282 0
154 14 -107 -84 -193 219 0
-22 -71 -36 41 272 -244 -182 -90 -48 0
-104 -203 0
-219 -183 202 -20 -209 -193 328 112 108 168 0
-88 114 -222 -102 0
-262 -96 -172 -309 269 294 176 0
-308 198 -260 -216 0
-213 26 0
168 283 6 0
-22 -130 0
-139 -135 42 -325 286 295 85 0
-316 -56 -230 -105 -293 218 64 -179 0
-264 183 198 -167 -78 -175 -238 -250 274 0
-327 -131 -273 -229 88 85 0
92 145 -130 -180 314 50 213 206 0
-297 192 275 181 138 -213 -152 229 -205 -72 0
-154 302 253 279 228 94 313 -143 0
76 -19 -212 -215 8 279 -269 0
174 290 -74 -190 -208 0
-325 -67 -104 106 33 -277 0
99 -129 -256 252 122 -291 -21 -266 -37 -198 0
102 -156 -160 0
-246 68 118 0
-17 220 203 -261 -301 -106 0
-276 -147 -130 143 270 -279 -22 0
142 -113 88 -137 267 0
-198 93 203 39 -140 15 -74 5 -150 190 0
-195 300 -234 -47 100 0
-131 237 215 -50 229 187 47 0
10 305 298 -55 5 0
-296 -231 0
312 87 210 -12 165 74 -311 -132 -182 0
-157 204 -214 -94 259 0
-92 263 104 0
111 12 -11 86 -105 219 271 178 262 0
-233 243 -249 156 279 278 209 178 111 -248 0
303 175 301 151 114 239 -53 -283 -6 0
244 159 -95 251 -2 0
-77 100 -13 247 117 79 -59 -152 270 0
277 -156 118 -309 203 -170 0
-190 50 21 217 62 -9 0
-28 251 -261 120 -36 -234 -165 -82 -42 -129 0
288 242 -73 136 -38 110 -285 0
69 97 238 -157 -227 -116 0
309 96 -295 -88 0
-127 254 -45 0
261 305 52 184 232 140 21 306 222 0
-193 -195 -111 190 -255 0
296 311 -290 -154 -34 294 0
-73 290 -34 247 0
-36 -99 48 -64 100 244 -321 -128 -253 -5 0
173 219 -273 0
-2 36 -212 -63 131 -133 -114 0
-160 -187 0
-200 -278 302 -220 312 78 -47 236 91 0
221 -156 162 0
286 -180 40 117 35 120 54 256 -204 -242 0
245 237 283 189 -199 -224 0
-230 -14 -83 -91 -121 -262 273 0
-293 292 -304 11 45 89 -106 -250 110 0
-122 -191 29 -106 0
-134 21 -229 -186 -240 162 0
25 -216 -56 101 209 258 140 323 274 0
147 176 -12 200 274 190 -307 2 -153 -241 0
-220 112 29 171 -49 0
268 -249 -298 229 126 -220 -91 44 0
-80 -27 259 -55 -190 0
-218 154 -284 40 280 -151 -150 0
-252 -85 166 -303 0
-43 -210 -14 -302 21 35 34 -149 317 -309 0
-323 76 286 -51 -254 0
273 -171 -253 6 0
-295 -69 -63 -151 -162 -50 -305 9 -47 -175 0
-290 39 57 89 -302 24 -221 0
327 326 0
-53 -259 79 269 -184 0
21 -161 -15 41 -162 0
-128 -316 -19 -262 -277 288 -76 244 116 251 0
153 253 -41 0
-268 291 -275 -167 228 0
-129 188 0
-102 246 83 -270 204 155 280 0
-269 -133 119 71 293 236 -77 -314 -252 -298 0
-114 25 0
-37 71 258 -166 308 -314 57 0
-271 157 69 -149 -294 244 -160 -82 0
-108 292 -260 -308 7 -324 -178 -261 -20 -222 0
-34 -115 -106 0
111 -177 43 0
118 183 218 -132 -79 -136 -216 68 0
255 -77 306 -170 274 0
293 -275 -280 187 -121 -325 0
-97 18 -299 -219 -157 83 260 286 0
172 154 194 -242 88 236 272 71 161 0
206 84 0
-78 66 -27 110 -61 -216 -92 -246 65 0
172 -250 320 149 -209 0
104 270 250 297 -85 306 -293 205 264 0
225 278 198 -184 277 262 -241 -68 258 0
249 -169 75 1 -138 154 -16 163 0
69 -104 -169 -217 149 9 74 -141 256 -288 0
219 27 31 -285 55 123 0
178 -248 -241 0
-110 -131 0
-239 261 0
-231 -115 -324 46 267 0
135 -299 222 0
207 88 -84 -99 46 -72 -34 -17 -161 136 0
-157 93 -294 263 -26 -239 -307 16 -115 -81 0
-141 -116 -48 40 297 0
192 151 -52 -206 -168 -204 -112 -5 -289 98 0
210 253 -239 -138 81 0
163 33 186 190 -4 -149 0
164 -294 -156 205 -299 48 0
-132 -59 16 -218 -260 -69 3 0
196 -13 -298 -110 92 -258 251 141 0
-252 103 -133 21 90 67 -208 -156 0
298 -55 -137 62 36 65 -113 213 167 0
262 -81 63 229 -172 154 0
-198 326 328 -312 86 0
-9 -117 110 11 72 190 0
83 152 156 -136 102 60 -184 38 49 288 0
267 49 -294 -154 0
225 70 -95 241 -99 285 312 43 -150 0
41 -313 -169 -161 48 -69 0
23 275 -138 0
-201 -89 -181 -233 -125 -173 0
283 118 -188 0
-275 -148 -325 0
328 0
